nK = 1039;
nT = 6;
nI = 14;
L = 35;
TT = 241;
np = 1;
nc = 3;
b = [28, 35, 42, 50, 60, 59, 38, 33, 44, 50, 49, 25, 69, 61];
d = [114, 56, 88, 109, 122, 125, 133, 91, 142, 122, 127, 56, 123, 114];
m = [2, 1.4, 2.5, 2.5, 1.3, 1.1, 2.2, 1.9, 1.9, 1.7, 1.6, 1.6, 1.9, 2.4];
pt = [0.32, 0.31, 0.33, 0.28, 0.22, 0.25];
st = [15.68, 13.64, 14.19, 13.72, 12.32, 12];
arc = {<1, 0, 1, 1, 0, 0, 0, [1, 1, 1, 1, 1, 1]>, <2, 1, 2, 1, 0, 0, 0, [1, 1, 1, 1, 1, 1]>, <3, 2, 3, 1, 0, 0, 0, [1, 1, 1, 1, 1, 1]>, <4, 3, 4, 1, 0, 0, 0, [1, 1, 1, 1, 1, 1]>, <5, 4, 5, 1, 0, 0, 0, [1, 1, 1, 1, 1, 1]>, <6, 5, 6, 1, 0, 0, 0, [1, 1, 1, 1, 1, 1]>, <7, 6, 7, 1, 0, 0, 0, [1, 1, 1, 1, 1, 1]>, <8, 7, 8, 1, 0, 0, 0, [1, 1, 1, 1, 1, 1]>, <9, 8, 9, 1, 0, 0, 0, [1, 1, 1, 1, 1, 1]>, <10, 9, 10, 1, 0, 0, 0, [1, 1, 1, 1, 1, 1]>, <11, 10, 11, 1, 0, 0, 0, [1, 1, 1, 1, 1, 1]>, <12, 11, 12, 1, 0, 0, 0, [1, 1, 1, 1, 1, 1]>, <13, 12, 13, 1, 0, 0, 0, [1, 1, 1, 1, 1, 1]>, <14, 13, 14, 1, 0, 0, 0, [1, 1, 1, 1, 1, 1]>, <15, 14, 15, 1, 0, 0, 0, [1, 1, 1, 1, 1, 1]>, <16, 15, 16, 1, 0, 0, 0, [1, 1, 1, 1, 1, 1]>, <17, 16, 17, 1, 0, 0, 0, [1, 1, 1, 1, 1, 1]>, <18, 17, 18, 1, 0, 0, 0, [1, 1, 1, 1, 1, 1]>, <19, 18, 19, 1, 0, 0, 0, [1, 1, 1, 1, 1, 1]>, <20, 19, 20, 1, 0, 0, 0, [1, 1, 1, 1, 1, 1]>, <21, 20, 21, 1, 0, 0, 0, [1, 1, 1, 1, 1, 1]>, <22, 21, 22, 1, 0, 0, 0, [1, 1, 1, 1, 1, 1]>, <23, 22, 23, 1, 0, 0, 0, [1, 1, 1, 1, 1, 1]>, <24, 23, 24, 1, 0, 0, 0, [1, 1, 1, 1, 1, 1]>, <25, 24, 25, 1, 0, 0, 0, [1, 1, 1, 1, 1, 1]>, <26, 25, 26, 1, 0, 0, 0, [1, 1, 1, 1, 1, 1]>, <27, 26, 27, 1, 0, 0, 0, [1, 1, 1, 1, 1, 1]>, <28, 27, 28, 1, 0, 0, 0, [1, 1, 1, 1, 1, 1]>, <29, 28, 29, 1, 0, 0, 0, [1, 1, 1, 1, 1, 1]>, <30, 29, 30, 1, 0, 0, 0, [1, 1, 1, 1, 1, 1]>, <31, 30, 31, 1, 0, 0, 0, [1, 1, 1, 1, 1, 1]>, <32, 31, 32, 1, 0, 0, 0, [1, 1, 1, 1, 1, 1]>, <33, 32, 33, 1, 0, 0, 0, [1, 1, 1, 1, 1, 1]>, <34, 33, 34, 1, 0, 0, 0, [1, 1, 1, 1, 1, 1]>, <35, 34, 35, 1, 0, 0, 0, [1, 1, 1, 1, 1, 1]>, <36, 5, 17, 12, 1, 0, 1, [0, 0, 0, 1, 1, 0]>, <37, 6, 18, 12, 1, 0, 1, [0, 0, 0, 1, 1, 0]>, <38, 14, 26, 12, 1, 0, 1, [0, 0, 0, 1, 1, 0]>, <39, 15, 27, 12, 1, 0, 1, [0, 0, 0, 1, 1, 0]>, <40, 19, 31, 12, 1, 0, 1, [0, 0, 0, 1, 1, 0]>, <41, 20, 32, 12, 1, 0, 1, [0, 0, 0, 1, 1, 0]>, <42, 21, 33, 12, 1, 0, 1, [0, 0, 0, 1, 1, 0]>, <43, 22, 34, 12, 1, 0, 1, [0, 0, 0, 1, 1, 0]>, <44, 23, 35, 12, 1, 0, 1, [0, 0, 0, 1, 1, 0]>, <45, 3, 17, 14, 2, 0, 0, [1, 1, 0, 0, 0, 0]>, <46, 4, 18, 14, 2, 0, 0, [1, 1, 0, 0, 0, 0]>, <47, 5, 19, 14, 2, 0, 0, [1, 1, 0, 0, 0, 0]>, <48, 6, 20, 14, 2, 0, 0, [1, 1, 0, 0, 0, 0]>, <49, 12, 26, 14, 2, 0, 0, [1, 1, 0, 0, 0, 0]>, <50, 13, 27, 14, 2, 0, 0, [1, 1, 0, 0, 0, 0]>, <51, 14, 28, 14, 2, 0, 0, [1, 1, 0, 0, 0, 0]>, <52, 15, 29, 14, 2, 0, 0, [1, 1, 0, 0, 0, 0]>, <53, 17, 31, 14, 2, 0, 0, [1, 1, 0, 0, 0, 0]>, <54, 18, 32, 14, 2, 0, 0, [1, 1, 0, 0, 0, 0]>, <55, 19, 33, 14, 2, 0, 0, [1, 1, 0, 0, 0, 0]>, <56, 20, 34, 14, 2, 0, 0, [1, 1, 0, 0, 0, 0]>, <57, 21, 35, 14, 2, 0, 0, [1, 1, 0, 0, 0, 0]>, <58, 5, 14, 9, 3, 0, 1, [0, 0, 0, 1, 1, 0]>, <59, 6, 15, 9, 3, 0, 1, [0, 0, 0, 1, 1, 0]>, <60, 14, 23, 9, 3, 0, 1, [0, 0, 0, 1, 1, 0]>, <61, 15, 24, 9, 3, 0, 1, [0, 0, 0, 1, 1, 0]>, <62, 22, 31, 9, 3, 0, 1, [0, 0, 0, 1, 1, 0]>, <63, 23, 32, 9, 3, 0, 1, [0, 0, 0, 1, 1, 0]>, <64, 24, 33, 9, 3, 0, 1, [0, 0, 0, 1, 1, 0]>, <65, 5, 16, 11, 4, 0, 1, [1, 0, 0, 0, 0, 1]>, <66, 6, 17, 11, 4, 0, 1, [1, 0, 0, 0, 0, 1]>, <67, 14, 25, 11, 4, 0, 1, [1, 0, 0, 0, 0, 1]>, <68, 15, 26, 11, 4, 0, 1, [1, 0, 0, 0, 0, 1]>, <69, 20, 31, 11, 4, 0, 1, [1, 0, 0, 0, 0, 1]>, <70, 21, 32, 11, 4, 0, 1, [1, 0, 0, 0, 0, 1]>, <71, 22, 33, 11, 4, 0, 1, [1, 0, 0, 0, 0, 1]>, <72, 23, 34, 11, 4, 0, 1, [1, 0, 0, 0, 0, 1]>, <73, 24, 35, 11, 4, 0, 1, [1, 0, 0, 0, 0, 1]>, <74, 5, 16, 11, 5, 0, 1, [0, 0, 0, 0, 1, 1]>, <75, 6, 17, 11, 5, 0, 1, [0, 0, 0, 0, 1, 1]>, <76, 14, 25, 11, 5, 0, 1, [0, 0, 0, 0, 1, 1]>, <77, 15, 26, 11, 5, 0, 1, [0, 0, 0, 0, 1, 1]>, <78, 20, 31, 11, 5, 0, 1, [0, 0, 0, 0, 1, 1]>, <79, 21, 32, 11, 5, 0, 1, [0, 0, 0, 0, 1, 1]>, <80, 22, 33, 11, 5, 0, 1, [0, 0, 0, 0, 1, 1]>, <81, 23, 34, 11, 5, 0, 1, [0, 0, 0, 0, 1, 1]>, <82, 24, 35, 11, 5, 0, 1, [0, 0, 0, 0, 1, 1]>, <83, 5, 15, 10, 6, 1, 0, [0, 0, 0, 1, 1, 0]>, <84, 6, 16, 10, 6, 1, 0, [0, 0, 0, 1, 1, 0]>, <85, 14, 24, 10, 6, 1, 0, [0, 0, 0, 1, 1, 0]>, <86, 15, 25, 10, 6, 1, 0, [0, 0, 0, 1, 1, 0]>, <87, 21, 31, 10, 6, 1, 0, [0, 0, 0, 1, 1, 0]>, <88, 22, 32, 10, 6, 1, 0, [0, 0, 0, 1, 1, 0]>, <89, 23, 33, 10, 6, 1, 0, [0, 0, 0, 1, 1, 0]>, <90, 24, 34, 10, 6, 1, 0, [0, 0, 0, 1, 1, 0]>, <91, 5, 15, 10, 7, 1, 0, [0, 0, 0, 0, 1, 1]>, <92, 6, 16, 10, 7, 1, 0, [0, 0, 0, 0, 1, 1]>, <93, 14, 24, 10, 7, 1, 0, [0, 0, 0, 0, 1, 1]>, <94, 15, 25, 10, 7, 1, 0, [0, 0, 0, 0, 1, 1]>, <95, 21, 31, 10, 7, 1, 0, [0, 0, 0, 0, 1, 1]>, <96, 22, 32, 10, 7, 1, 0, [0, 0, 0, 0, 1, 1]>, <97, 23, 33, 10, 7, 1, 0, [0, 0, 0, 0, 1, 1]>, <98, 24, 34, 10, 7, 1, 0, [0, 0, 0, 0, 1, 1]>, <99, 5, 17, 12, 8, 1, 0, [0, 0, 1, 1, 0, 0]>, <100, 6, 18, 12, 8, 1, 0, [0, 0, 1, 1, 0, 0]>, <101, 14, 26, 12, 8, 1, 0, [0, 0, 1, 1, 0, 0]>, <102, 15, 27, 12, 8, 1, 0, [0, 0, 1, 1, 0, 0]>, <103, 19, 31, 12, 8, 1, 0, [0, 0, 1, 1, 0, 0]>, <104, 20, 32, 12, 8, 1, 0, [0, 0, 1, 1, 0, 0]>, <105, 21, 33, 12, 8, 1, 0, [0, 0, 1, 1, 0, 0]>, <106, 22, 34, 12, 8, 1, 0, [0, 0, 1, 1, 0, 0]>, <107, 23, 35, 12, 8, 1, 0, [0, 0, 1, 1, 0, 0]>, <108, 2, 17, 15, 9, 0, 0, [0, 0, 0, 1, 1, 0]>, <109, 3, 18, 15, 9, 0, 0, [0, 0, 0, 1, 1, 0]>, <110, 4, 19, 15, 9, 0, 0, [0, 0, 0, 1, 1, 0]>, <111, 5, 20, 15, 9, 0, 0, [0, 0, 0, 1, 1, 0]>, <112, 6, 21, 15, 9, 0, 0, [0, 0, 0, 1, 1, 0]>, <113, 11, 26, 15, 9, 0, 0, [0, 0, 0, 1, 1, 0]>, <114, 12, 27, 15, 9, 0, 0, [0, 0, 0, 1, 1, 0]>, <115, 13, 28, 15, 9, 0, 0, [0, 0, 0, 1, 1, 0]>, <116, 14, 29, 15, 9, 0, 0, [0, 0, 0, 1, 1, 0]>, <117, 15, 30, 15, 9, 0, 0, [0, 0, 0, 1, 1, 0]>, <118, 16, 31, 15, 9, 0, 0, [0, 0, 0, 1, 1, 0]>, <119, 17, 32, 15, 9, 0, 0, [0, 0, 0, 1, 1, 0]>, <120, 18, 33, 15, 9, 0, 0, [0, 0, 0, 1, 1, 0]>, <121, 19, 34, 15, 9, 0, 0, [0, 0, 0, 1, 1, 0]>, <122, 20, 35, 15, 9, 0, 0, [0, 0, 0, 1, 1, 0]>, <123, 5, 14, 9, 10, 0, 0, [1, 1, 0, 0, 0, 0]>, <124, 6, 15, 9, 10, 0, 0, [1, 1, 0, 0, 0, 0]>, <125, 14, 23, 9, 10, 0, 0, [1, 1, 0, 0, 0, 0]>, <126, 15, 24, 9, 10, 0, 0, [1, 1, 0, 0, 0, 0]>, <127, 22, 31, 9, 10, 0, 0, [1, 1, 0, 0, 0, 0]>, <128, 23, 32, 9, 10, 0, 0, [1, 1, 0, 0, 0, 0]>, <129, 24, 33, 9, 10, 0, 0, [1, 1, 0, 0, 0, 0]>, <130, 2, 17, 15, 11, 0, 1, [1, 0, 0, 0, 0, 1]>, <131, 3, 18, 15, 11, 0, 1, [1, 0, 0, 0, 0, 1]>, <132, 4, 19, 15, 11, 0, 1, [1, 0, 0, 0, 0, 1]>, <133, 5, 20, 15, 11, 0, 1, [1, 0, 0, 0, 0, 1]>, <134, 6, 21, 15, 11, 0, 1, [1, 0, 0, 0, 0, 1]>, <135, 11, 26, 15, 11, 0, 1, [1, 0, 0, 0, 0, 1]>, <136, 12, 27, 15, 11, 0, 1, [1, 0, 0, 0, 0, 1]>, <137, 13, 28, 15, 11, 0, 1, [1, 0, 0, 0, 0, 1]>, <138, 14, 29, 15, 11, 0, 1, [1, 0, 0, 0, 0, 1]>, <139, 15, 30, 15, 11, 0, 1, [1, 0, 0, 0, 0, 1]>, <140, 16, 31, 15, 11, 0, 1, [1, 0, 0, 0, 0, 1]>, <141, 17, 32, 15, 11, 0, 1, [1, 0, 0, 0, 0, 1]>, <142, 18, 33, 15, 11, 0, 1, [1, 0, 0, 0, 0, 1]>, <143, 19, 34, 15, 11, 0, 1, [1, 0, 0, 0, 0, 1]>, <144, 20, 35, 15, 11, 0, 1, [1, 0, 0, 0, 0, 1]>, <145, 5, 17, 12, 12, 0, 0, [1, 1, 0, 0, 0, 0]>, <146, 6, 18, 12, 12, 0, 0, [1, 1, 0, 0, 0, 0]>, <147, 14, 26, 12, 12, 0, 0, [1, 1, 0, 0, 0, 0]>, <148, 15, 27, 12, 12, 0, 0, [1, 1, 0, 0, 0, 0]>, <149, 19, 31, 12, 12, 0, 0, [1, 1, 0, 0, 0, 0]>, <150, 20, 32, 12, 12, 0, 0, [1, 1, 0, 0, 0, 0]>, <151, 21, 33, 12, 12, 0, 0, [1, 1, 0, 0, 0, 0]>, <152, 22, 34, 12, 12, 0, 0, [1, 1, 0, 0, 0, 0]>, <153, 23, 35, 12, 12, 0, 0, [1, 1, 0, 0, 0, 0]>, <154, 4, 17, 13, 13, 0, 1, [1, 0, 0, 0, 0, 1]>, <155, 5, 18, 13, 13, 0, 1, [1, 0, 0, 0, 0, 1]>, <156, 6, 19, 13, 13, 0, 1, [1, 0, 0, 0, 0, 1]>, <157, 13, 26, 13, 13, 0, 1, [1, 0, 0, 0, 0, 1]>, <158, 14, 27, 13, 13, 0, 1, [1, 0, 0, 0, 0, 1]>, <159, 15, 28, 13, 13, 0, 1, [1, 0, 0, 0, 0, 1]>, <160, 18, 31, 13, 13, 0, 1, [1, 0, 0, 0, 0, 1]>, <161, 19, 32, 13, 13, 0, 1, [1, 0, 0, 0, 0, 1]>, <162, 20, 33, 13, 13, 0, 1, [1, 0, 0, 0, 0, 1]>, <163, 21, 34, 13, 13, 0, 1, [1, 0, 0, 0, 0, 1]>, <164, 22, 35, 13, 13, 0, 1, [1, 0, 0, 0, 0, 1]>, <165, 2, 17, 15, 14, 1, 0, [1, 0, 0, 0, 0, 1]>, <166, 3, 18, 15, 14, 1, 0, [1, 0, 0, 0, 0, 1]>, <167, 4, 19, 15, 14, 1, 0, [1, 0, 0, 0, 0, 1]>, <168, 5, 20, 15, 14, 1, 0, [1, 0, 0, 0, 0, 1]>, <169, 6, 21, 15, 14, 1, 0, [1, 0, 0, 0, 0, 1]>, <170, 11, 26, 15, 14, 1, 0, [1, 0, 0, 0, 0, 1]>, <171, 12, 27, 15, 14, 1, 0, [1, 0, 0, 0, 0, 1]>, <172, 13, 28, 15, 14, 1, 0, [1, 0, 0, 0, 0, 1]>, <173, 14, 29, 15, 14, 1, 0, [1, 0, 0, 0, 0, 1]>, <174, 15, 30, 15, 14, 1, 0, [1, 0, 0, 0, 0, 1]>, <175, 16, 31, 15, 14, 1, 0, [1, 0, 0, 0, 0, 1]>, <176, 17, 32, 15, 14, 1, 0, [1, 0, 0, 0, 0, 1]>, <177, 18, 33, 15, 14, 1, 0, [1, 0, 0, 0, 0, 1]>, <178, 19, 34, 15, 14, 1, 0, [1, 0, 0, 0, 0, 1]>, <179, 20, 35, 15, 14, 1, 0, [1, 0, 0, 0, 0, 1]>};
